networks/zoo_20_33/zoo_20_33-lower.sol
<?xml version = "1.0" encoding="UTF-8" standalone="yes"?>
<CPLEXSolution version="1.2">
 <header
   problemName="networks/zoo_20_33/zoo_20_33-lower.lp"
   solutionName="incumbent"
   solutionIndex="-1"
   objectiveValue="7"
   solutionTypeValue="3"
   solutionTypeString="primal"
   solutionStatusValue="101"
   solutionStatusString="integer optimal solution"
   solutionMethodString="mip"
   primalFeasible="1"
   dualFeasible="1"
   MIPNodes="0"
   MIPIterations="0"
   writeLevel="3"/>
 <quality
   epInt="1.0000000000000001e-05"
   epRHS="9.9999999999999995e-07"
   maxIntInfeas="0"
   maxPrimalInfeas="0"
   maxX="1"
   maxSlack="1"/>
 <variables>
  <variable name="Y(1,2)" index="1" value="1"/>
  <variable name="Y(2,3)" index="16" value="1"/>
  <variable name="Y(3,4)" index="31" value="1"/>
  <variable name="Y(4,7)" index="48" value="1"/>
  <variable name="Y(7,5)" index="88" value="1"/>
  <variable name="Y(9,1)" index="112" value="1"/>
  <variable name="Y(13,6)" index="173" value="1"/>
  <variable name="X(1,4,1)" index="462" value="1"/>
  <variable name="X(1,14,9)" index="503" value="1"/>
  <variable name="X(2,4,5)" index="532" value="1"/>
  <variable name="X(2,15,1)" index="561" value="1"/>
  <variable name="X(3,4,9)" index="602" value="1"/>
  <variable name="X(3,16,2)" index="628" value="1"/>
  <variable name="X(4,1,9)" index="668" value="1"/>
  <variable name="X(4,2,1)" index="693" value="1"/>
  <variable name="X(4,3,2)" index="727" value="1"/>
  <variable name="X(4,5,7)" index="765" value="1"/>
  <variable name="X(4,6,13)" index="804" value="1"/>
  <variable name="X(4,7,4)" index="828" value="1"/>
  <variable name="X(4,17,3)" index="860" value="1"/>
  <variable name="X(5,4,21)" index="911" value="1"/>
  <variable name="X(5,18,7)" index="930" value="1"/>
  <variable name="X(6,4,26)" index="982" value="1"/>
  <variable name="X(6,19,13)" index="1002" value="1"/>
  <variable name="X(7,4,30)" index="1052" value="1"/>
  <variable name="X(7,20,4)" index="1059" value="1"/>
 </variables>
</CPLEXSolution>
